/ this is a comment
\ this too
Min
obj: x0 + x1 + 3 x2 - 4.5 xyr + 1
s.t.
cons1: x0 - x2 - 2.3 x4 <= 4.2 / this is another comment
c2: x1 + x2 >= 1
cc: x1 + x2 + xyr = 2
Bounds
0 <= x1 <= 3
1 >= x2
x3 = 1
-2 <= x4 <= Inf
xyr free
Integers
x0
Generals
x1 xyr
Binaries
x2
End

